c File: instances/24_0.45_1.col
c
c Description: Random graph of size 24 vertices and P(0.44999999999999996) of edges between any two vertices.
p col 24 276
e 1 4
e 1 5
e 1 7
e 1 8
e 1 9
e 1 10
e 1 11
e 1 12
e 1 14
e 1 15
e 1 16
e 1 17
e 1 22
e 1 24
e 2 4
e 2 6
e 2 8
e 2 10
e 2 12
e 2 13
e 2 15
e 2 24
e 3 4
e 3 5
e 3 6
e 3 10
e 3 11
e 3 12
e 3 13
e 3 14
e 3 17
e 3 18
e 3 21
e 3 22
e 3 23
e 4 11
e 4 13
e 4 16
e 4 17
e 4 19
e 4 21
e 5 6
e 5 7
e 5 9
e 5 10
e 5 15
e 5 18
e 5 19
e 5 20
e 5 21
e 5 23
e 6 7
e 6 8
e 6 9
e 6 11
e 6 14
e 6 17
e 6 18
e 6 19
e 6 24
e 7 8
e 7 9
e 7 10
e 7 11
e 7 12
e 7 13
e 7 15
e 7 18
e 7 19
e 8 11
e 8 13
e 8 14
e 8 15
e 8 19
e 8 21
e 8 23
e 9 10
e 9 11
e 9 13
e 9 15
e 9 18
e 9 19
e 9 20
e 9 22
e 9 23
e 9 24
e 10 15
e 10 17
e 10 18
e 10 21
e 10 22
e 10 24
e 11 12
e 11 13
e 11 14
e 11 18
e 11 19
e 11 23
e 12 13
e 12 14
e 12 16
e 12 17
e 12 20
e 12 21
e 12 24
e 13 14
e 13 16
e 13 20
e 13 21
e 13 23
e 14 15
e 14 16
e 14 19
e 14 20
e 14 23
e 15 17
e 15 21
e 15 23
e 16 17
e 16 18
e 16 19
e 16 20
e 16 22
e 16 23
e 17 18
e 18 19
e 18 21
e 18 23
e 18 24
e 20 21
e 20 22
e 21 23
e 21 24
e 22 23
e 22 24
e 23 24